c random cnf
p cnf 50 50
9 -19 0
-9 45 0
-15 -37 0
17 42 0
21 38 0
-7 21 0
-19 46 0
-15 50 0
31 -46 0
-7 25 0
22 46 0
-7 19 0
-32 45 0
-2 -11 0
-28 45 0
-19 27 0
5 26 0
-23 38 0
9 15 0
8 -12 0
-21 42 0
-13 -49 0
15 38 0
35 50 0
22 39 0
-27 -49 0
-3 27 0
-16 38 0
6 37 0
3 41 0
-6 29 0
-25 -49 0
31 43 0
-1 23 0
5 20 0
-10 11 0
-24 45 0
-35 39 0
13 30 0
31 49 0
-10 -12 0
11 -45 0
13 -37 0
-33 42 0
-15 43 0
15 -41 0
-36 -45 0
25 37 0
-1 -44 0
23 -44 0
